
Gurobi 6.5.2 (linux64) logging started Wed Sep 14 14:58:49 2016

Optimize a model with 41 rows, 153 columns and 309 nonzeros
Coefficient statistics:
  Matrix range    [1e+00, 2e+00]
  Objective range [1e+00, 1e+02]
  Bounds range    [1e+00, 1e+00]
  RHS range       [1e+00, 1e+00]
Found heuristic solution: objective 882
Presolve removed 20 rows and 18 columns
Presolve time: 0.00s
Presolved: 21 rows, 135 columns, 271 nonzeros
Variable types: 0 continuous, 135 integer (135 binary)

Root relaxation: objective 4.250000e+02, 26 iterations, 0.00 seconds

    Nodes    |    Current Node    |     Objective Bounds      |     Work
 Expl Unexpl |  Obj  Depth IntInf | Incumbent    BestBd   Gap | It/Node Time

     0     0  428.66667    0   11  882.00000  428.66667  51.4%     -    0s
H    0     0                     707.0000000  428.66667  39.4%     -    0s
     0     0  452.00000    0    6  707.00000  452.00000  36.1%     -    0s
H    0     0                     582.0000000  452.00000  22.3%     -    0s
     0     0  453.75000    0   10  582.00000  453.75000  22.0%     -    0s
     0     0  458.00000    0   14  582.00000  458.00000  21.3%     -    0s
H    0     0                     576.0000000  458.00000  20.5%     -    0s
*    0     0               0     459.0000000  459.00000  0.00%     -    0s

Cutting planes:
  Gomory: 1
  MIR: 1
  Zero half: 2
  Lazy constraints: 11

Explored 0 nodes (54 simplex iterations) in 0.01 seconds
Thread count was 8 (of 8 available processors)

Optimal solution found (tolerance 1.00e-04)
Best objective 4.590000000000e+02, best bound 4.590000000000e+02, gap 0.0%
